&CONTROL
     calculation   = "scf"
     restart_mode  = "from_scratch"
     prefix        = 'Crdimer0.2-0.5'
     pseudo_dir    = "/home/sf05/q-e-qe-6.7MaX-Release/pseudo"
     outdir        = './mytmp'
    !forc_conv_thr =  1.d-5
    !nstep=100
/

&SYSTEM
    ibrav = 4, A = 10.0160, C = 18.0000, nat = 34, ntyp = 4,
    ecutrho                   = 457
    ecutwfc                   = 48
    occupations="smearing", smearing="gaussian", degauss=1.d-8,
    nspin                     = 2
    starting_magnetization(3) = 1
    starting_magnetization(4) = 1
    vdw_corr = 'Grimme-D3'
/

&ELECTRONS
    electron_maxstep = 500
    mixing_beta      = 0.5
    conv_thr         = 1.d-7
/



K_POINTS {automatic}
    3 3 1  1 1 0

ATOMIC_SPECIES
B      10.81100     B.pbe-n-kjpaw_psl.1.0.0.UPF
N      14.00674     N.pbe-n-kjpaw_psl.1.0.0.UPF
Cr1    51.99610  Cr.pbe-spn-kjpaw_psl.1.0.0.UPF
Cr2    51.99610  Cr.pbe-spn-kjpaw_psl.1.0.0.UPF

ATOMIC_POSITIONS {crystal}
B        0.000000000   0.250000000   0.500    0   0   1
B        0.750000000   0.750000000   0.500    0   0   1
B        0.250000000   0.000000000   0.500    0   0   1
B        0.750000000   0.000000000   0.500    0   0   1
B        0.250000000   0.250000000   0.500    0   0   1
B        0.000000000   0.750000000   0.500    0   0   1
N        0.916667000   0.333333000   0.500    0   0   1
N        0.666667000   0.583333000   0.500    0   0   1
N        0.416667000   0.083333000   0.500    0   0   1
N        0.666667000   0.083333000   0.500    0   0   1
N        0.416667000   0.333333000   0.500    0   0   1
N        0.916667000   0.583333000   0.500    0   0   1
N        0.166667000   0.333333000   0.500    0   0   1
N        0.666667000   0.833333000   0.500    0   0   1
N        0.166667000   0.833333000   0.500    0   0   1
B        0.250000000   0.500000000   0.500    0   0   1
B        0.500000000   0.750000000   0.500    0   0   1
B        0.250000000   0.750000000   0.500    0   0   1
B        0.500000000   0.250000000   0.500    0   0   1
B        0.750000000   0.250000000   0.500    0   0   1
B        0.750000000   0.500000000   0.500    0   0   1
N        0.666667000   0.333333000   0.500    0   0   1
B        0.000000000   0.500000000   0.500    0   0   1
B        0.500000000   0.500000000   0.500    0   0   1
B        0.500000000   0.000000000   0.500    0   0   1
N        0.166667000   0.583333000   0.500    0   0   1
N        0.416667000   0.583333000   0.500    0   0   1
N        0.416667000   0.833333000   0.500    0   0   1
N        0.916667000   0.833333000   0.500    0   0   1
N        0.166667000   0.083333000   0.500    0   0   1
N        0.916667000   0.083333000   0.500    0   0   1
B        0.000000000   0.000000000   0.500    0   0   1
Cr1      0.7   0.5   0.67
Cr2      0.3   0.5   0.67
            