&CONTROL
     calculation   = "scf"
     restart_mode  = "from_scratch"
     prefix        = '2Cr0.18'
     pseudo_dir    = "/home/sf05/q-e-qe-6.7MaX-Release/pseudo"
     outdir        = './mytmp'
    !forc_conv_thr =  1.d-5
    !nstep=100
/

&SYSTEM
    ibrav = 4, A = 10.0160, C = 18.0000, nat = 2, ntyp = 2,
    ecutrho                   = 457
    ecutwfc                   = 48
    occupations="smearing", smearing="gaussian", degauss=1.d-8,
    nspin                     = 2
    starting_magnetization(1) = 1
    starting_magnetization(2) = 1
    vdw_corr = 'Grimme-D3'
/

&ELECTRONS
    electron_maxstep = 500
    mixing_beta      = 0.5
    conv_thr         = 1.d-7
/



K_POINTS {automatic}
    3 3 1  1 1 0

ATOMIC_SPECIES
Cr1    51.99610  Cr.pbe-spn-kjpaw_psl.1.0.0.UPF
Cr2    51.99610  Cr.pbe-spn-kjpaw_psl.1.0.0.UPF

ATOMIC_POSITIONS {crystal}
Cr1      0.6799999999999999   0.5   0.5
Cr2      0.32   0.5   0.5